Version identifier: 22.1.0.0 | 2022-03-09 | 1a383f8ce
CPXPARAM_Threads                                 1
CPXPARAM_MIP_Strategy_VariableSelect             3
CPXPARAM_TimeLimit                               599.99998508399995
1 of 1 MIP starts provided solutions.
MIP start 'm1' defined initial solution with objective 1.0000.
Tried aggregator 1 time.
MIP Presolve eliminated 17 rows and 0 columns.
MIP Presolve modified 2 coefficients.
Reduced MIP has 2107 rows, 7500 columns, and 117696 nonzeros.
Reduced MIP has 7500 binaries, 0 generals, 0 SOSs, and 0 indicators.
Presolve time = 0.06 sec. (46.15 ticks)
Probing time = 0.01 sec. (8.87 ticks)
Tried aggregator 1 time.
Detecting symmetries...
Reduced MIP has 2107 rows, 7500 columns, and 117696 nonzeros.
Reduced MIP has 7500 binaries, 0 generals, 0 SOSs, and 0 indicators.
Presolve time = 0.08 sec. (56.05 ticks)
Probing time = 0.01 sec. (8.87 ticks)
Clique table members: 301.
MIP emphasis: balance optimality and feasibility.
MIP search method: dynamic search.
Parallel mode: none, using 1 thread.
Root relaxation solution time = 0.14 sec. (133.33 ticks)

        Nodes                                         Cuts/
   Node  Left     Objective  IInf  Best Integer    Best Bound    ItCnt     Gap

*     0+    0                            1.0000     7500.0000              --- 
      0     0      300.0000   155        1.0000      300.0000     1352     --- 
*     0+    0                          300.0000      300.0000             0.00%
      0     0        cutoff            300.0000      300.0000     1352    0.00%
Elapsed time = 1.33 sec. (1342.31 ticks, tree = 0.01 MB, solutions = 2)

Root node processing (before b&c):
  Real time             =    1.33 sec. (1342.59 ticks)
Sequential b&c:
  Real time             =    0.00 sec. (0.00 ticks)
                          ------------
Total (root+branch&cut) =    1.33 sec. (1342.59 ticks)
Primal:	300
Dual:	300
Status:	Optimal
Time:	1.36
Sequence:
	22
	9
	18
	21
	22
	21
	20
	21
	21
	12
	21
	21
	15
	21
	3
	12
	14
	6
	14
	14
	6
	0
	21
	3
	21
	6
	10
	19
	4
	3
	3
	13
	11
	3
	20
	20
	20
	17
	20
	20
	20
	20
	14
	13
	16
	16
	3
	16
	6
	11
	16
	16
	4
	11
	5
	22
	1
	9
	24
	17
	3
	20
	20
	20
	11
	6
	13
	20
	13
	13
	22
	11
	20
	10
	1
	6
	13
	6
	1
	1
	8
	0
	3
	0
	13
	5
	1
	7
	5
	3
	23
	8
	17
	7
	5
	7
	1
	12
	24
	6
	10
	15
	14
	6
	12
	22
	6
	4
	5
	10
	4
	3
	22
	18
	0
	6
	0
	0
	6
	22
	0
	0
	16
	23
	23
	6
	13
	23
	23
	6
	1
	9
	6
	1
	17
	9
	21
	20
	3
	16
	16
	10
	1
	9
	3
	5
	17
	16
	16
	16
	16
	6
	16
	16
	12
	7
	16
	12
	12
	12
	20
	0
	12
	15
	15
	11
	0
	12
	12
	12
	5
	12
	15
	5
	10
	15
	5
	5
	12
	4
	8
	13
	4
	9
	9
	9
	0
	1
	4
	1
	9
	16
	2
	9
	4
	14
	9
	24
	4
	24
	3
	13
	5
	22
	12
	5
	16
	3
	20
	3
	3
	3
	0
	0
	3
	4
	0
	4
	0
	4
	6
	20
	1
	3
	13
	21
	1
	3
	6
	3
	3
	20
	6
	9
	21
	6
	13
	9
	13
	6
	7
	11
	6
	0
	3
	16
	9
	8
	8
	17
	0
	8
	8
	8
	6
	0
	16
	8
	8
	10
	6
	6
	6
	2
	14
	3
	17
	0
	6
	17
	6
	21
	6
	21
	3
	0
	16
	0
	2
	4
	2
	4
	3
	4
	18
	18
	22
	16
	15
	21
	23
	6
	24
	24
	3
	6
	6
	4
	17
	15
